rectOffsets = 
    [|0,0,6,18|0,0,18,6|0,0,2,12|0,0,12,2|0,0,10,7|0,0,7,10|0,0,4,23|0,0,23,4|0,0,4,1|0,0,1,4|0,0,7,7|0,0,7,7|0,0,11,4|0,0,4,11|0,0,6,5|0,0,5,6|0,0,2,7|0,0,7,2|0,0,6,11|0,0,11,6|0,0,10,19|0,0,19,10|0,0,11,5|0,0,5,11|0,0,4,2|0,0,2,4|0,0,7,5|0,0,5,7|0,0,4,2|0,0,2,4|0,0,7,12|0,0,12,7|0,0,7,13|0,0,13,7|0,0,3,6|0,0,6,3|0,0,6,10|0,0,10,6|0,0,9,16|0,0,16,9|0,0,1,4|0,0,4,1|0,0,4,10|0,0,10,4|0,0,6,24|0,0,24,6|0,0,9,9|0,0,9,9|0,0,2,1|0,0,1,2|0,0,8,5|0,0,5,8|0,0,3,5|0,0,5,3|0,0,7,25|0,0,25,7|0,0,5,21|0,0,21,5|];

shape = array1d(1..58, [{1}, {2}, {3}, {4}, {5}, {6}, {7}, {8}, {9}, {10},
    {11}, {12}, {13}, {14}, {15}, {16}, {17}, {18}, {19}, {20}, {21},
    {22}, {23}, {24}, {25}, {26}, {27}, {28}, {29}, {30}, {31}, {32},
    {33}, {34}, {35}, {36}, {37}, {38}, {39}, {40}, {41}, {42}, {43},
    {44}, {45}, {46}, {47}, {48}, {49}, {50}, {51}, {52}, {53}, {54},
    {55}, {56}, {57}, {58}]);

validshapes = array1d(1..29, [{1,2}, {3,4}, {5,6}, {7,8}, {9,10}, {11,12}, {13,14},
    {15,16}, {17,18}, {19,20}, {21,22}, {23,24}, {25,26}, {27,28},
    {29,30}, {31,32}, {33,34}, {35,36}, {37,38}, {39,40}, {41,42},
    {43,44}, {45,46}, {47,48}, {49,50}, {51,52}, {53,54}, {55,56},
    {57,58}]);

dx = array1d(1..29, [6, 2, 10, 4, 4, 7, 11, 6, 2, 6, 10, 11, 4, 7, 4, 7, 7,
    3, 6, 9, 1, 4, 6, 9, 2, 8, 3, 7, 5]);

dy = array1d(1..29, [18, 12, 7, 23, 1, 7, 4, 5, 7, 11, 19, 5, 2, 5, 2, 12,
    13, 6, 10, 16, 4, 10, 24, 9, 1, 5, 5, 25, 21]);

w = 30;

n = 29;

o = 58;

